# LAMMPS Input file: ReaxFF potential for LiS sysstem

# Intialization
units          real
boundary       p p p
atom_style     charge
read_data      data.Li1S

# Atom Definition
#  reax args:
#             hbcut hbnewflag tripflag precision
pair_style     reax 6.0 1 1 1.0e-6
pair_coeff     * * ffield.reax 7 4

compute reax all pair reax

variable eb      equal c_reax[1]
variable ea      equal c_reax[2]
variable elp     equal c_reax[3]
variable emol    equal c_reax[4]
variable ev      equal c_reax[5]
variable epen    equal c_reax[6]
variable ecoa    equal c_reax[7]
variable ehb     equal c_reax[8]
variable et      equal c_reax[9]
variable eco     equal c_reax[10]
variable ew      equal c_reax[11]
variable ep      equal c_reax[12]
variable efi     equal c_reax[13]
variable eqeq    equal c_reax[14]

# Nieghbor list cutoff
# 2.5 Angstrom (2 is more typical?)
neighbor        2.5 bin

# Rebuild neighbor list:
#  delay value = N
#    N = delay building until this many steps since last build
#  every value = M
#    M = build neighbor list every this many steps
#  check value = yes or no
#    yes = only build if some atom has moved half the skin distance or more
#    no = always build on 1st step that every and delay are satisfied
neigh_modify    every 10 delay 0 check no

# Timestep of iteration [fs]
# van Duin paper uses 0.25 fs
timestep        1.0

dump            1 all custom 10 dump.Li1S.lmp id type q xs ys zs

dump           2 all image 25 image.*.jpg type type &
               axes yes 0.8 0.02 view 60 -30
dump_modify    2 pad 3

#dump           3 all movie 25 movie.mpg type type &
#               axes yes 0.8 0.02 view 60 -30
#dump_modify    3 pad 3

# Run for # of timesteps (NOT [fs])
# Example: with 0.25 fs timestep, 1 ns = 4,000,000 timesteps
run             100
